
Gurobi 9.5.1 (linux64) logging started Tue 16 Aug 2022 09:16:23 PM MST

Set parameter LogFile to value "/home/local/ASUAD/kmajd1/NNRepLayer_v2/demos/walking_example/dynamic_constraint/repair_net/logs/opt_log_multi_30.log"
Gurobi Optimizer version 9.5.1 build v9.5.1rc2 (linux64)
Thread count: 48 physical cores, 96 logical processors, using up to 48 threads
Optimize a model with 15477 rows, 9832 columns and 129493 nonzeros
Model fingerprint: 0x76fae672
Model has 135 quadratic objective terms
Variable types: 5512 continuous, 4320 integer (4320 binary)
Coefficient statistics:
  Matrix range     [2e-03, 6e+01]
  Objective range  [7e-03, 3e+00]
  QObjective range [1e-01, 1e-01]
  Bounds range     [1e-03, 3e+02]
  RHS range        [6e-05, 6e+01]

Concurrent MIP optimizer: 3 concurrent instances (16 threads per instance)

Presolve removed 462 rows and 96 columns
Presolve time: 0.22s
Presolved: 15015 rows, 9736 columns, 128839 nonzeros
Presolved model has 135 quadratic objective terms
Variable types: 5416 continuous, 4320 integer (4320 binary)
Root relaxation presolve removed 4320 rows and 4320 columns
Root relaxation presolved: 10695 rows, 5416 columns, 115879 nonzeros
Root relaxation presolved model has 135 quadratic objective terms


Root relaxation: objective 1.912959e+01, 6783 iterations, 0.39 seconds (0.67 work units)

    Nodes    |    Current Node    |     Objective Bounds      |     Work
 Expl Unexpl |  Obj  Depth IntInf | Incumbent    BestBd   Gap | It/Node Time

     0     0      -    -    -              -   19.12959      -     -    0s
     0     0      -    -    -              -   19.12959      -     -    3s
     0     2      -    -    -              -   19.12959      -     -    9s
    15    32      -    -    -              -   19.12959      -     -   10s
  1761  1850      -    -    -              -   19.12959      -     -   15s
  4095  4283      -    -    -              -   19.12959      -     -   20s
  6636  6862      -    -    -              -   19.12959      -     -   25s
  8632  8809      -    -    -              -   19.12959      -     -   30s
  9977 10027      -    -    -              -   19.12959      -     -   35s
 10255 10255      -    -    -              -   19.12959      -     -   41s
 10257  8794      -    -    -       37.83039   19.12959  49.4%     -   60s
 10336  8423      -    -    -       35.14678   19.12959  45.6%     -   92s
 10395  8045      -    -    -       31.60343   19.12959  39.5%     -   96s
 11392  8726      -    -    -       31.60343   19.12959  39.5%     -  101s
 12066  9291      -    -    -       31.60343   19.12959  39.5%     -  119s
 12334  9485      -    -    -       31.60343   19.12959  39.5%     -  120s

Instance 1 was solved

Explored 14006 nodes (1369765 simplex iterations) in 121.48 seconds (185.86 work units)
Thread count was 16 (of 96 available processors)

Solution count 10: 29.1318 31.6034 31.7113 ... 36.7987 

Optimal solution found (tolerance 3.50e-01)
Best objective 2.913184589503e+01, best bound 1.912958821705e+01, gap 34.3344%
